5860 5439 5273 5051 4695 4633 4366 4236 4053 3912 3778 3753 3611 3564 3436 3313 3267 3225 3035 2961 2837 2827 2745 2675 2640 2579 2541 2491 2418 2370 2325 2284 2257 2217 2190 2145 2116 2079 2040 1994 1981 1968 1955 1926 1912 1886 1870 1823 1817 1807 1789 1767 1752 1743 1725 1714 1704 1699 1693 1691 1681 1678 1671 1662 1653 1645 1642 1636 1630 1630 1630 1616 1616 1616 1609 1609 1603 1603 1603 1594 1584 1584 1584 1577 1577 1575 1561 1559 1559 1542 1542 1542 1527 1527 1527 1513 1509 1508 1504 1504 1504 1499 1499 1499 1496 1495 1492 1492 1492 1488 1488 1486 1486 1484 1484 1484 1484 1484 1484 1484 1483 1483 1483 1482 1481 1480 1480 1480 1480 1480 1480 1480 1480 1475 1475 1475 1462 1462 1462 1462 1462 1462 1462 1462 1462 1462 1461 1461 1461 1461 1461 1461 1461 1461 1461 1461 1461 1461 1461 1461 1461 1461 1461 1461 1461 1461 1461 1461 1461 1461 1461 1461 1461 1461 1461 1461 1461 1461 1461 1457 1457 1449 1449 1449 1449 1449 1449 1449 1449 1449 1449 1449 1449 1449 1449 1449 1449 1449 1449 1449 1449 1449 1449 1449 1449 1449 1449 1449 1449 1449 1449 1449 1449 1449 1449 1449 1449 1449 1449 1449 1449 1449 1449 1449 1449 1449 1449 1449 1449 1449 1449 1449 1449 1449 1449 1449 1449 1449 1449 1449 1449 1449 1449 1449 1449 1449 1449 1449 1449 1449 1449 1449 1449 1449 1449 1449 1449 1449 1449 1449 1449 1449 1449 1449 1449 1449 1449 1449 1449 1449 1449 1449 1449 1449 1449 1449 1449 1449 1449 1449 1449 1449 1449 1449 1449 1449 1449 1449 1449 1449 1449 1449 1449 1449 1449 1449 1449 1449 1449 1449 1449 1449 1449 1449 1449 1449 1449 1449 1449 1449 1449 1449 1449 1449 1449 1449 1449 1449 1449 1449 1449 1449 1449 1449 1449 1449 1449 1449 1449 1449 1449 1449 1449 1449 1449 1449 1449 1449 1449 1449 1449 1449 1449 1449 1449 1449 1449 1449 1449 1449 1449 1449 1449 1449 1449 1449 1449 1449 1449 1449 1449 1449 1449 1449 1449 1449 1449 1449 1449 1449 1449 1449 1449 1449 1449 1449 1449 1449 1449 1449 1449 1449 1449 1449 1449 1449 1449 1449 1449 1449 1449 1449 1449 1449 1449 1449 1449 1449 1449 1449 1449 1449 1449 1449 1449 1449 1449 1449 1449 1449 1449 1449 1449 1449 1449 1449 1449 1449 1449 1449 1449 1449 1449 1449 1449 1449 1449 1449 1449 1449 1449 1449 1449 1449 1449 1449 1449 1449 1449 1449 1449 1449 1449 1449 1449 1449 1449 1449 1449 1449 1449 1449 1449 1449 1449 1449 1449 1449 1449 1449 1449 1449 1449 1449 1449 1449 1449 1449 1449 1449 1449 1449 1449 1449 1449 1449 1449 1449 1449 1449 1449 1449 1449 1449 1449 1449 1449 1449 1449 1449 1449 1449 1449 1449 1449 1449 1449 1449 1449 1449 1449 1449 1449 1449 1449 1449 1449 1449 1449 1449 1449 1449 1449 1449 1449 1449 1449 1449 1449 1449 1449 1449 1449 1449 1449 1449 1449 1449 1449 1449 1449 1449 1449 1449 1449 1449 1449 1449 1449 1449 1449 1449 1449 1449 1449 1449 1449 1449 1449 1449 1449 1449 1449 1449 1449 1449 1449 1449 1449 1449 1449 1449 1449 1449 1449 1449 1449 1449 1449 1449 1449 1449 1449 1449 1449 1449 1449 1449 1449 1449 1449 1449 1449 1449 1449 1449 1449 1449 1449 1449 1449 1449 1449 1449 1449 1449 1449 1449 1449 1449 1449 1449 1449 1449 1449 1449 1449 1449 1449 1449 1449 1449 1449 1449 1449 1449 1449 1449 1449 1449 1449 1449 1449 1449 1449 1449 1449 1449 1449 1449 1449 1449 1449 1449 1449 1449 1449 1449 1449 1449 1449 1449 1449 1449 1449 1449 1449 1449 1449 1449 1449 1449 1449 1449 1449 1449 1449 1449 1449 1449 1449 1449 1449 1449 1449 1449 1449 1449 1449 1449 1449 1449 1449 1449 1449 1449 1449 1449 1449 1449 1449 1449 1449 1449 1449 1449 1449 1449 1449 1449 1449 1449 1449 1449 1449 1449 1449 1449 1449 1449 1449 1449 1449 1449 1449 1449 1449 1449 1449 1449 1449 1449 1449 1449 1449 1449 1449 1449 1449 1449 1449 1449 1449 1449 1449 1449 1449 1449 1449 1449 1449 1449 1449 1449 1449 1449 1449 1449 1449 1449 1449 1449 1449 1449 1449 1449 1449 1449 1449 1449 1449 1449 1449 1449 1449 1449 1449 1449 1449 1449 1449 1449 1449 1449 1449 1449 1449 1449 1449 1449 1449 1449 1449 1449 1449 1449 1449 1449 1449 1449 1449 1449 1449 1449 1449 1449 1449 1449 1449 1449 1449 1449 1449 1449 1449 1449 1449 1449 1449 1449 1449 1449 1449 1449 1449 1449 1449 1449 1449 1449 1449 1449 1449 1449 1449 1449 1449 1449 1449 1449 1449 1449 1449 1449 1449 1449 1449 1449 1449 1449 1449 1449 1449 1449 1449 1449 1449 1449 1449 1449 1449 1449 1449 1449 1449 1449 1449 1449 1449 1449 1449 1449 1449 1449 1449 1449 1449 1449 1449 1449 1449 1449 1449 1449 1449 1449 1449 1449 1449 1449 1449 1449 1449 1449 1449 1449 1449 1449 1449 1449 1449 1449 1449 1449 1449 1449 1449 1449 1449 1449 1449 1449 1449 1449 1449 1449 1449 1449 1449 1449 1449 1449 1449 1449 1449 1449 1449 1449 1449 1449 1449 1449 1449 1449 1449 1449 1449 1449 1449 1449 1449 1449 1449 1449 1449 1449 1449 1449 1449 1449 1449 1449 1449 1449 1449 1449 1449 1449 1449 1449 1449 1449 1449 1449 1449 1449 1449 1449 1449 1449 1449 1449 1449 1449 1449 1449 1449 1449 1449 1449 1449 1449 1449 1449 1449 1449 1449 1449 1449 1449 1449 1449 1449 1449 1449 1449 1449 1449 1449 1449 1449 1449 1449 1449 1449 1449 1449 1449 1449 1449 1449 1449 1449 1449 1449 1449 1449 1449 1449 1449 1449 1449 1449 1449 1449 1449 1449 1449 1449 1449 1449 1449 1449 1449 1449 1449 1449 1449 1449 1449 1449 1449 1449 1449 1449 1449 1449 1449 1449 1449 1449 1449 1449 1449 1449 1449 1449 1449 1449 1449 1449 1449 1449 1449 1449 1449 1449 1449 1449 1449 1449 1449 1449 1449 1449 1449 1449 1449 1449 1449 1449 1449 1449 1449 1449 1449 1449 1449 1449 1449 1449 1449 1449 1449 1449 1449 1449 1449 1449 1449 1449 1449 1449 1449 1449 1449 1449 1449 1449 1449 1449 1449 1449 1449 1449 1449 1449 1449 1449 1449 1449 1449 1449 1449 1449 1449 1449 1449 1449 1449 1449 1449 1449 1449 1449 1449 1449 1449 1449 1449 1449 1449 1449 1449 1449 1449 1449 1449 1449 1449 1449 1449 1449 1449 1449 1449 1449 1449 1449 1449 1449 1449 1449 1449 1449 1449 1449 1449 1449 1449 1449 1449 1449 1449 1449 1449 1449 1449 1449 1449 1449 1449 1449 1449 1449 1449 1449 1449 1449 1449 1449 1449 1449 1449 1449 1449 1449 1449 1449 1449 1449 1449 1449 1449 1449 1449 1449 1449 1449 1449 1449 1449 1449 1449 1449 1449 1449 1449 1449 1449 1449 1449 1449 1449 1449 1449 1449 1449 1449 1449 1449 1449 1449 1449 1449 1449 1449 1449 1449 1449 1449 1449 1449 1449 1449 1449 1449 1449 1449 1449 1449 1449 1449 1449 1449 1449 1449 1449 1449 1449 1449 1449 1449 1449 1449 1449 1449 1449 1449 1449 1449 1449 1449 1449 1449 1449 1449 1449 1449 1449 1449 1449 1449 1449 1449 1449 1449 1449 1449 1449 1449 1449 1449 1449 1449 1449 1449 1449 1449 1449 1449 1449 1449 1449 1449 1449 1449 1449 1449 1449 1449 1449 1449 1449 1449 1449 1449 1449 1449 1449 1449 1449 1449 1449 1449 1449 1449 1449 1449 1449 1449 1449 1449 1449 1449 1449 1449 1449 1449 1449 1449 1449 1449 1449 1449 1449 1449 1449 1449 1449 1449 1449 1449 1449 1449 1449 1449 1449 1449 1449 1449 1449 1449 1449 1449 1449 1449 1449 1449 1449 1449 1449 1449 1449 1449 1449 1449 1449 1449 1449 1449 1449 1449 1449 1449 1449 1449 1449 1449 1449 1449 1449 1449 1449 1449 1449 1449 1449 1449 1449 1449 1449 1449 1449 1449 1449 1449 1449 1449 1449 1449 1449 1449 1449 1449 1449 1449 1449 1449 1449 1449 1449 1449 1449 1449 1449 1449 1449 1449 1449 1449 1449 1449 1449 1449 1449 1449 1449 1449 1449 1449 1449 1449 1449 1449 1449 1449 1449 1449 1449 1449 1449 1449 1449 1449 1449 1449 1449 1449 1449 1449 1449 1449 1449 1449 1449 1449 1449 1449 1449 1449 1449 1449 1449 1449 1449 1449 1449 1449 1449 1449 1449 1449 1449 1449 1449 1449 1449 1449 1449 1449 1449 1449 1449 1449 1449 1449 1449 1449 1449 1449 1449 1449 1449 1449 1449 1449 1449 1449 1449 1449 1449 1449 1449 1449 1449 1449 1449 1449 1449 
6924 6372 5996 5706 5450 5243 5037 4828 4649 4471 4254 4114 3964 3846 3742 3618 3527 3447 3357 3277 3179 3020 2934 2831 2763 2693 2639 2591 2538 2482 2429 2373 2322 2284 2258 2227 2185 2140 2106 2067 2032 2000 1979 1966 1952 1934 1913 1890 1866 1844 1821 1808 1786 1765 1752 1735 1723 1714 1704 1702 1697 1690 1683 1677 1670 1664 1659 1652 1645 1634 1630 1629 1629 1627 1617 1615 1611 1608 1607 1604 1602 1602 1600 1590 1583 1583 1580 1576 1573 1566 1560 1557 1546 1541 1539 1527 1524 1512 1511 1508 1504 1503 1503 1503 1500 1498 1495 1495 1494 1491 1491 1491 1487 1485 1485 1485 1484 1484 1484 1484 1483 1483 1483 1482 1482 1482 1481 1480 1480 1480 1480 1480 1480 1479 1479 1479 1478 1474 1474 1462 1462 1462 1462 1462 1462 1462 1461 1461 1461 1461 1461 1461 1461 1461 1461 1461 1461 1461 1461 1461 1461 1461 1461 1461 1461 1461 1461 1461 1461 1461 1461 1461 1461 1461 1461 1461 1461 1461 1461 1460 1460 1460 1456 1454 1449 1449 1449 1449 1449 1449 1449 1449 1449 1449 1449 1449 1449 1449 1449 1449 1449 1449 1449 1449 1449 1449 1449 1449 1449 1449 1449 1449 1449 1449 1449 1449 1449 1449 1449 1449 1449 1449 1449 1449 1449 1449 1449 1449 1449 1449 1449 1449 1449 1449 1449 1449 1449 1449 1449 1449 1449 1449 1449 1449 1449 1449 1449 1449 1449 1449 1449 1449 1449 1449 1449 1449 1449 1449 1449 1449 1449 1449 1449 1449 1449 1449 1449 1449 1449 1449 1449 1449 1449 1449 1449 1449 1449 1449 1449 1449 1449 1449 1449 1449 1449 1449 1449 1449 1449 1449 1449 1449 1449 1449 1449 1449 1449 1449 1449 1449 1449 1449 1449 1449 1449 1449 1449 1449 1449 1449 1449 1449 1449 1449 1449 1449 1449 1449 1449 1449 1449 1449 1449 1449 1449 1449 1449 1449 1449 1449 1449 1449 1449 1449 1449 1449 1449 1449 1449 1449 1449 1449 1449 1449 1449 1449 1449 1449 1449 1449 1449 1449 1449 1449 1449 1449 1449 1449 1449 1449 1449 1449 1449 1449 1449 1449 1449 1449 1449 1449 1449 1449 1449 1449 1449 1449 1449 1449 1449 1449 1449 1449 1449 1449 1449 1449 1449 1449 1449 1449 1449 1449 1449 1449 1449 1449 1449 1449 1449 1449 1449 1449 1449 1449 1449 1449 1449 1449 1449 1449 1449 1449 1449 1449 1449 1449 1449 1449 1449 1449 1449 1449 1449 1449 1449 1449 1449 1449 1449 1449 1449 1449 1449 1449 1449 1449 1449 1449 1449 1449 1449 1449 1449 1449 1449 1449 1449 1449 1449 1449 1449 1449 1449 1449 1449 1449 1449 1449 1449 1449 1449 1449 1449 1449 1449 1449 1449 1449 1449 1449 1449 1449 1449 1449 1449 1449 1449 1449 1449 1449 1449 1449 1449 1449 1449 1449 1449 1449 1449 1449 1449 1449 1449 1449 1449 1449 1449 1449 1449 1449 1449 1449 1449 1449 1449 1449 1449 1449 1449 1449 1449 1449 1449 1449 1449 1449 1449 1449 1449 1449 1449 1449 1449 1449 1449 1449 1449 1449 1449 1449 1449 1449 1449 1449 1449 1449 1449 1449 1449 1449 1449 1449 1449 1449 1449 1449 1449 1449 1449 1449 1449 1449 1449 1449 1449 1449 1449 1449 1449 1449 1449 1449 1449 1449 1449 1449 1449 1449 1449 1449 1449 1449 1449 1449 1449 1449 1449 1449 1449 1449 1449 1449 1449 1449 1449 1449 1449 1449 1449 1449 1449 1449 1449 1449 1449 1449 1449 1449 1449 1449 1449 1449 1449 1449 1449 1449 1449 1449 1449 1449 1449 1449 1449 1449 1449 1449 1449 1449 1449 1449 1449 1449 1449 1449 1449 1449 1449 1449 1449 1449 1449 1449 1449 1449 1449 1449 1449 1449 1449 1449 1449 1449 1449 1449 1449 1449 1449 1449 1449 1449 1449 1449 1449 1449 1449 1449 1449 1449 1449 1449 1449 1449 1449 1449 1449 1449 1449 1449 1449 1449 1449 1449 1449 1449 1449 1449 1449 1449 1449 1449 1449 1449 1449 1449 1449 1449 1449 1449 1449 1449 1449 1449 1449 1449 1449 1449 1449 1449 1449 1449 1449 1449 1449 1449 1449 1449 1449 1449 1449 1449 1449 1449 1449 1449 1449 1449 1449 1449 1449 1449 1449 1449 1449 1449 1449 1449 1449 1449 1449 1449 1449 1449 1449 1449 1449 1449 1449 1449 1449 1449 1449 1449 1449 1449 1449 1449 1449 1449 1449 1449 1449 1449 1449 1449 1449 1449 1449 1449 1449 1449 1449 1449 1449 1449 1449 1449 1449 1449 1449 1449 1449 1449 1449 1449 1449 1449 1449 1449 1449 1449 1449 1449 1449 1449 1449 1449 1449 1449 1449 1449 1449 1449 1449 1449 1449 1449 1449 1449 1449 1449 1449 1449 1449 1449 1449 1449 1449 1449 1449 1449 1449 1449 1449 1449 1449 1449 1449 1449 1449 1449 1449 1449 1449 1449 1449 1449 1449 1449 1449 1449 1449 1449 1449 1449 1449 1449 1449 1449 1449 1449 1449 1449 1449 1449 1449 1449 1449 1449 1449 1449 1449 1449 1449 1449 1449 1449 1449 1449 1449 1449 1449 1449 1449 1449 1449 1449 1449 1449 1449 1449 1449 1449 1449 1449 1449 1449 1449 1449 1449 1449 1449 1449 1449 1449 1449 1449 1449 1449 1449 1449 1449 1449 1449 1449 1449 1449 1449 1449 1449 1449 1449 1449 1449 1449 1449 1449 1449 1449 1449 1449 1449 1449 1449 1449 1449 1449 1449 1449 1449 1449 1449 1449 1449 1449 1449 1449 1449 1449 1449 1449 1449 1449 1449 1449 1449 1449 1449 1449 1449 1449 1449 1449 1449 1449 1449 1449 1449 1449 1449 1449 1449 1449 1449 1449 1449 1449 1449 1449 1449 1449 1449 1449 1449 1449 1449 1449 1449 1449 1449 1449 1449 1449 1449 1449 1449 1449 1449 1449 1449 1449 1449 1449 1449 1449 1449 1449 1449 1449 1449 1449 1449 1449 1449 1449 1449 1449 1449 1449 1449 1449 1449 1449 1449 1449 1449 1449 1449 1449 1449 1449 1449 1449 1449 1449 1449 1449 1449 1449 1449 1449 1449 1449 1449 1449 1449 1449 1449 1449 1449 1449 1449 1449 1449 1449 1449 1449 1449 1449 1449 1449 1449 1449 1449 1449 1449 1449 1449 1449 1449 1449 1449 1449 1449 1449 1449 1449 1449 1449 1449 1449 1449 1449 1449 1449 1449 1449 1449 1449 1449 1449 1449 1449 1449 1449 1449 1449 1449 1449 1449 1449 1449 1449 1449 1449 1449 1449 1449 1449 1449 1449 1449 1449 1449 1449 1449 1449 1449 1449 1449 1449 1449 1449 1449 1449 1449 1449 1449 1449 1449 1449 1449 1449 1449 1449 1449 1449 1449 1449 1449 1449 1449 1449 1449 1449 1449 1449 1449 1449 1449 1449 1449 1449 1449 1449 1449 1449 1449 1449 1449 1449 1449 1449 1449 1449 1449 1449 1449 1449 1449 1449 1449 1449 1449 1449 1449 1449 1449 1449 1449 1449 1449 1449 1449 1449 1449 1449 1449 1449 1449 1449 1449 1449 1449 1449 1449 1449 1449 1449 1449 1449 1449 1449 1449 1449 1449 1449 1449 1449 1449 1449 1449 1449 1449 1449 1449 1449 1449 1449 1449 1449 1449 1449 1449 1449 1449 1449 1449 1449 1449 1449 1449 1449 1449 1449 1449 1449 1449 1449 1449 1449 1449 1449 1449 1449 1449 1449 1449 1449 1449 1449 1449 1449 1449 1449 1449 1449 1449 1449 1449 1449 1449 1449 1449 1449 1449 1449 1449 1449 1449 1449 1449 1449 1449 1449 1449 1449 1449 1449 1449 1449 1449 1449 1449 1449 1449 1449 1449 1449 1449 1449 1449 1449 1449 1449 1449 1449 1449 1449 1449 1449 1449 1449 1449 1449 1449 1449 1449 1449 1449 1449 1449 1449 1449 1449 1449 1449 1449 1449 1449 1449 1449 1449 1449 1449 1449 1449 1449 1449 1449 1449 1449 1449 1449 1449 1449 1449 1449 1449 1449 1449 1449 1449 1449 1449 1449 1449 1449 1449 1449 1449 1449 1449 1449 1449 1449 1449 1449 1449 1449 1449 1449 1449 1449 1449 1449 1449 1449 1449 1449 1449 1449 1449 1449 1449 1449 1449 1449 1449 1449 1449 1449 1449 1449 1449 1449 1449 1449 1449 1449 1449 1449 1449 1449 1449 1449 1449 1449 1449 1449 1449 1449 1449 1449 1449 1449 1449 1449 1449 1449 1449 1449 1449 1449 1449 1449 1449 1449 1449 1449 1449 1449 1449 1449 1449 1449 1449 1449 1449 1449 1449 1449 1449 1449 1449 1449 1449 1449 1449 1449 1449 1449 1449 1449 1449 1449 1449 1449 1449 1449 1449 1449 1449 1449 1449 1449 1449 1449 1449 1449 1449 1449 1449 1449 1449 1449 1449 1449 1449 1449 1449 1449 1449 1449 1449 1449 1449 1449 1449 1449 1449 1449 1449 1449 1449 1449 1449 1449 1449 1449 1449 1449 1449 1449 1449 1449 1449 1449 1449 1449 1449 1449 1449 1449 1449 1449 1449 1449 1449 1449 1449 1449 1449 1449 1449 1449 1449 1449 1449 1449 1449 